20	5
0	9	2	9	4	1	6	5	3	7	8
1	2	15	13
2	1	12
3	1	12
4	2	16	17
5	1	10
6	4	13	15	19	18
7	2	13	18
8	2	19	14
9	1	17
10	4	15	19	14	17
11	3	14	16	20
12	2	11	17
13	1	21
14	1	21
15	1	21
16	1	21
17	1	21
18	1	21
19	1	21
20	1	21
21	0
0	0	0	0	0	0	0
1	3	1	4	2	1	5
2	4	4	2	3	5	4
3	10	3	1	2	2	4
4	2	3	4	2	1	4
5	7	1	1	3	1	1
6	8	5	1	2	3	1
7	1	4	4	1	2	2
8	8	5	1	3	4	1
9	2	4	4	3	3	4
10	4	2	4	3	3	1
11	6	4	2	2	3	4
12	2	3	2	1	2	5
13	6	3	3	3	3	4
14	8	3	5	3	2	1
15	1	4	4	5	1	2
16	10	5	5	3	1	3
17	2	4	1	4	1	3
18	8	5	5	5	2	1
19	1	2	1	4	1	5
20	6	3	4	2	3	3
21	0	0	0	0	0	0
5	5	5	5	5
